<number of tasks>
250

<cycle time>
1000

<order strength>
0.595


<task times>
1 129
2 400
3 170
4 114
5 420
6 275
7 241
8 574
9 56
10 195
11 579
12 59
13 41
14 276
15 80
16 194
17 115
18 48
19 199
20 94
21 85
22 233
23 168
24 129
25 460
26 528
27 95
28 98
29 128
30 201
31 486
32 217
33 113
34 159
35 247
36 121
37 196
38 524
39 409
40 54
41 138
42 66
43 162
44 103
45 88
46 414
47 81
48 54
49 40
50 490
51 272
52 146
53 304
54 506
55 452
56 580
57 483
58 439
59 373
60 178
61 188
62 168
63 464
64 174
65 212
66 34
67 180
68 285
69 132
70 444
71 635
72 594
73 519
74 501
75 270
76 165
77 574
78 106
79 226
80 169
81 453
82 227
83 32
84 343
85 215
86 471
87 304
88 241
89 203
90 286
91 105
92 538
93 289
94 125
95 339
96 180
97 62
98 334
99 204
100 84
101 142
102 355
103 206
104 31
105 554
106 557
107 533
108 178
109 39
110 508
111 284
112 460
113 125
114 359
115 89
116 129
117 83
118 29
119 115
120 244
121 152
122 502
123 246
124 249
125 402
126 295
127 414
128 544
129 153
130 213
131 53
132 255
133 143
134 246
135 162
136 96
137 168
138 87
139 535
140 254
141 151
142 482
143 36
144 489
145 276
146 106
147 156
148 277
149 274
150 467
151 53
152 117
153 62
154 364
155 25
156 77
157 60
158 35
159 100
160 284
161 169
162 280
163 431
164 113
165 27
166 230
167 164
168 37
169 499
170 130
171 66
172 231
173 440
174 196
175 274
176 471
177 59
178 219
179 168
180 373
181 147
182 27
183 76
184 29
185 63
186 280
187 66
188 483
189 272
190 128
191 174
192 149
193 82
194 101
195 22
196 225
197 148
198 81
199 502
200 40
201 227
202 140
203 27
204 149
205 276
206 454
207 500
208 499
209 217
210 140
211 338
212 171
213 33
214 280
215 97
216 39
217 186
218 93
219 285
220 143
221 87
222 219
223 181
224 83
225 254
226 477
227 484
228 23
229 174
230 393
231 433
232 56
233 116
234 461
235 169
236 490
237 162
238 27
239 112
240 338
241 507
242 56
243 139
244 197
245 520
246 25
247 28
248 189
249 133
250 154

<precedence relations>
1,136
2,49
3,49
4,49
5,87
6,107
7,179
8,231
9,159
10,11
10,12
10,13
10,14
10,15
10,16
10,17
10,18
10,19
11,136
12,110
13,49
14,49
15,107
16,107
17,20
17,25
17,26
17,39
17,83
17,86
18,22
18,27
18,28
18,50
19,20
19,21
19,22
19,23
19,24
19,28
19,29
20,49
21,49
22,49
23,49
24,80
25,80
26,220
27,220
28,33
28,48
29,30
29,31
29,32
29,34
29,35
29,36
29,37
29,38
30,110
31,49
32,49
33,87
34,220
35,220
36,107
37,159
38,39
38,40
38,41
38,42
38,43
38,44
38,45
38,46
38,47
38,48
39,49
40,49
41,49
42,49
43,87
44,159
45,50
45,51
45,52
46,80
47,49
47,50
47,51
47,56
47,75
48,53
48,54
48,55
48,57
48,69
48,80
48,82
49,58
49,59
49,60
49,61
49,62
49,63
49,64
49,66
50,80
51,220
52,107
53,180
54,159
55,133
55,138
55,148
56,65
56,104
57,67
57,104
58,180
59,73
59,74
59,95
60,68
60,74
61,72
61,81
61,108
61,135
62,104
62,130
63,69
63,82
64,71
65,87
66,76
66,105
67,70
67,75
68,110
69,87
70,87
71,80
72,107
73,179
74,78
74,82
74,84
75,79
75,81
75,83
75,85
76,77
76,78
77,136
78,136
79,87
80,88
80,89
80,90
80,91
80,92
80,94
80,95
81,107
82,180
83,180
84,180
85,86
85,93
86,136
87,96
87,97
87,98
87,99
87,100
87,105
88,101
88,106
89,105
89,137
89,156
90,101
90,103
90,104
90,130
91,129
91,202
91,222
92,102
93,107
94,159
95,212
95,216
96,110
97,180
98,159
99,129
99,131
99,148
99,212
100,106
100,108
101,107
102,107
103,179
104,109
104,161
105,152
106,110
107,112
107,113
107,114
107,115
107,116
107,117
107,118
107,119
107,120
107,121
107,122
108,179
109,111
110,124
110,125
110,126
110,127
110,128
111,202
112,181
112,198
113,129
113,160
114,123
114,129
114,139
115,193
115,234
117,138
117,149
118,123
119,147
119,150
119,151
120,123
120,139
121,123
121,139
122,123
123,136
124,130
125,132
125,135
126,147
126,154
127,130
127,135
128,131
128,133
128,134
128,157
129,174
129,176
130,136
131,179
132,159
133,159
134,178
134,197
135,137
135,138
135,139
135,154
136,140
136,141
136,142
136,143
136,144
136,145
136,146
136,147
137,176
137,194
137,218
138,150
138,153
138,156
138,179
138,203
139,147
139,160
140,148
140,150
140,152
141,175
141,194
142,193
142,212
143,149
143,151
144,151
144,152
145,148
145,151
146,156
146,157
147,148
147,152
148,202
149,202
150,234
151,153
151,154
151,156
151,161
151,174
152,153
152,155
152,157
153,234
154,179
155,159
156,158
156,160
156,196
157,161
157,162
157,178
158,202
159,165
159,166
159,167
159,168
159,169
159,170
159,171
161,164
162,163
162,172
162,173
162,241
163,231
164,180
165,196
165,204
166,242
167,231
168,174
168,217
169,218
169,224
170,182
171,175
171,176
172,214
172,221
172,242
173,177
173,198
173,221
174,179
175,180
176,178
176,181
177,182
177,233
178,234
179,183
179,184
179,185
179,186
179,187
179,194
179,216
180,188
180,189
180,190
180,191
180,192
180,195
181,193
181,217
181,219
182,216
183,232
186,200
187,209
188,196
189,197
189,204
189,210
190,201
192,214
194,199
195,198
196,202
197,202
199,213
200,204
200,215
200,221
201,203
202,205
202,206
202,207
202,208
202,211
202,214
203,209
203,210
203,212
204,213
204,233
205,219
206,215
207,250
208,216
208,217
210,214
211,242
212,218
212,240
213,234
214,234
215,220
216,231
217,224
218,222
219,221
219,223
220,225
220,226
220,227
220,228
220,229
220,230
221,231
222,232
222,233
225,234
226,240
228,242
229,241
229,242
231,235
231,236
231,237
231,238
231,239
231,240
234,243
234,244
234,245
234,246
234,247
234,248
234,249
236,250
240,250

<end>
